analyze/results_flowersnark/final_miplib_symretope_if_extended_generating_set_cpx_v802__settings_final_nosym_norestarts__4__neos-1109824.mps.gz.sol
solution status: optimal solution found
objective value:                                  378
C0010                                               1 	(obj:22)
C0051                                               1 	(obj:5)
C0063                                               1 	(obj:25)
C0077                                               1 	(obj:28)
C0123                                               1 	(obj:22)
C0141                                               1 	(obj:0)
C0157                                               1 	(obj:9)
C0186                                               1 	(obj:30)
C0193                                               1 	(obj:3)
C0251                                               1 	(obj:43)
C0293                                               1 	(obj:3)
C0381                                               1 	(obj:23)
C0417                                               1 	(obj:10)
C0609                                               1 	(obj:17)
C0735                                               1 	(obj:10)
C0779                                               1 	(obj:17)
C1027                                               1 	(obj:5)
C1098                                               1 	(obj:13)
C1139                                               1 	(obj:5)
C1145                                               1 	(obj:19)
C1246                                               1 	(obj:30)
C1365                                               1 	(obj:6)
C1445                                               1 	(obj:33)
