analyze/results_flowersnark/final_miplib_symretope_if_extended_generating_set_cpx_v802__settings_final_nosym_norestarts__4__neos-1109824.mps.gz.out
FILENAME:   /home/mcs001/s132664/testsets/IP/miplib2010/neos-1109824.mps.gz
SETTINGS:   settings_final_nosym_norestarts
TIMELIMIT:  7200
OUTPUTNAME: final_miplib_symretope_if_extended_generating_set_cpx_v802__settings_final_nosym_norestarts__4__
BINNAME:    bin/sbcs.linux.x86_64.gnu.opt.cpx
BASENAME:   neos-1109824.mps.gz
SEED:       4
@01 /home/mcs001/s132664/testsets/IP/miplib2010/neos-1109824.mps.gz ===========
@02 neos-1109824.mps.gz
@03 1686663838
SCIP version 8.0.2 [precision: 8 byte] [memory: block] [mode: optimized] [LP solver: CPLEX 20.1.0.0] [GitHash: 5f0473c]
Copyright (C) 2002-2022 Konrad-Zuse-Zentrum fuer Informationstechnik Berlin (ZIB)

Symretope propagation methods - (c) Jasper van Doornmalen, Christopher Hojny.
[GitHash: 2fd0484]

reading parameter file <../settings/settings_final_nosym_norestarts.set> ...

Changed settings:
limits/time = 7200
limits/restarts = 0
misc/usesymmetry = 0
randomization/randomseedshift = 4
constraints/orbisack/sepafreq = -1
constraints/symresack/sepafreq = -1
propagating/symmetry/detectsubgroups = FALSE
propagating/symmetry/usesymretopes = FALSE
propagating/symmetry/relabelsymretopes = 0
propagating/symmetry/ofsymcomptiming = 0
constraints/symretope/sepafreq = -1
constraints/symretope/peek = FALSE


solving problem ...

original problem has 1520 variables (1520 bin, 0 int, 0 impl, 0 cont) and 28979 constraints
presolving:
(round 1, exhaustive) 0 del vars, 19000 del conss, 0 add conss, 0 chg bounds, 0 chg sides, 0 chg coeffs, 0 upgd conss, 0 impls, 783 clqs
(round 2, exhaustive) 0 del vars, 19000 del conss, 0 add conss, 0 chg bounds, 0 chg sides, 0 chg coeffs, 9903 upgd conss, 0 impls, 783 clqs
   (1.0s) probing: 1000/1520 (65.8%) - 0 fixings, 0 aggregations, 51813 implications, 0 bound changes
   (1.0s) probing: 1001/1520 (65.9%) - 0 fixings, 0 aggregations, 51869 implications, 0 bound changes
   (1.0s) probing aborted: 1000/1000 successive useless probings
presolving (3 rounds: 3 fast, 3 medium, 3 exhaustive):
 0 deleted vars, 19000 deleted constraints, 0 added constraints, 0 tightened bounds, 0 added holes, 0 changed sides, 0 changed coefficients
 0 implications, 52652 cliques
presolved problem has 1520 variables (1520 bin, 0 int, 0 impl, 0 cont) and 9979 constraints
    783 constraints of type <setppc>
     76 constraints of type <linear>
   9120 constraints of type <logicor>
transformed objective value is always integral (scale: 1)
Presolving Time: 1.02

 time | node  | left  |LP iter|LP it/n|mem/heur|mdpt |vars |cons |rows |cuts |sepa|confs|strbr|  dualbound   | primalbound  |  gap   | compl. 
  1.2s|     1 |     0 |    38 |     - |    68M |   0 |1520 |  10k|9979 |   0 |  0 |  29 |   0 | 2.780000e+02 |      --      |    Inf | unknown
o 1.3s|     1 |     0 |   529 |     - |feaspump|   0 |1520 |  10k|9979 |   0 |  0 |  29 |   0 | 2.780000e+02 | 5.110000e+02 |  83.81%| unknown
  1.5s|     1 |     0 |   571 |     - |    69M |   0 |1520 |  10k|  10k|  29 |  1 |  29 |   0 | 2.780000e+02 | 5.110000e+02 |  83.81%| unknown
  1.6s|     1 |     0 |   646 |     - |    71M |   0 |1520 |  10k|  10k|  53 |  2 |  29 |   0 | 3.310000e+02 | 5.110000e+02 |  54.38%| unknown
  1.8s|     1 |     0 |   683 |     - |    72M |   0 |1520 |  10k|  10k|  71 |  3 |  29 |   0 | 3.460000e+02 | 5.110000e+02 |  47.69%| unknown
  1.8s|     1 |     0 |   695 |     - |    74M |   0 |1520 |  10k|  10k|  77 |  4 |  29 |   0 | 3.460000e+02 | 5.110000e+02 |  47.69%| unknown
  1.9s|     1 |     0 |   708 |     - |    75M |   0 |1520 |  10k|  10k|  86 |  5 |  29 |   0 | 3.460000e+02 | 5.110000e+02 |  47.69%| unknown
  2.0s|     1 |     0 |   733 |     - |    76M |   0 |1520 |  10k|  10k|  97 |  6 |  29 |   0 | 3.460000e+02 | 5.110000e+02 |  47.69%| unknown
  2.1s|     1 |     0 |   755 |     - |    77M |   0 |1520 |9999 |  10k| 106 |  7 |  29 |   0 | 3.460000e+02 | 5.110000e+02 |  47.69%| unknown
  2.3s|     1 |     0 |   772 |     - |    79M |   0 |1520 |9998 |  10k| 117 |  8 |  29 |   0 | 3.460000e+02 | 5.110000e+02 |  47.69%| unknown
  2.3s|     1 |     0 |   792 |     - |    80M |   0 |1520 |9998 |  10k| 127 |  9 |  29 |   0 | 3.460000e+02 | 5.110000e+02 |  47.69%| unknown
  2.5s|     1 |     0 |   806 |     - |    81M |   0 |1520 |9998 |  10k| 132 | 10 |  29 |   0 | 3.460000e+02 | 5.110000e+02 |  47.69%| unknown
  2.5s|     1 |     0 |   817 |     - |    82M |   0 |1520 |9998 |  10k| 138 | 11 |  29 |   0 | 3.460000e+02 | 5.110000e+02 |  47.69%| unknown
  2.5s|     1 |     0 |   823 |     - |    84M |   0 |1520 |9998 |  10k| 140 | 12 |  29 |   0 | 3.460000e+02 | 5.110000e+02 |  47.69%| unknown
  2.6s|     1 |     0 |   840 |     - |    85M |   0 |1520 |9997 |  10k| 143 | 13 |  29 |   0 | 3.460833e+02 | 5.110000e+02 |  47.65%| unknown
 time | node  | left  |LP iter|LP it/n|mem/heur|mdpt |vars |cons |rows |cuts |sepa|confs|strbr|  dualbound   | primalbound  |  gap   | compl. 
  2.6s|     1 |     0 |   846 |     - |    86M |   0 |1520 |9996 |  10k| 147 | 14 |  29 |   0 | 3.461111e+02 | 5.110000e+02 |  47.64%| unknown
  2.7s|     1 |     0 |   867 |     - |    87M |   0 |1520 |9996 |  10k| 150 | 15 |  29 |   0 | 3.462000e+02 | 5.110000e+02 |  47.60%| unknown
  2.7s|     1 |     0 |   875 |     - |    87M |   0 |1520 |9996 |  10k| 155 | 16 |  29 |   0 | 3.463333e+02 | 5.110000e+02 |  47.55%| unknown
  2.7s|     1 |     0 |   893 |     - |    88M |   0 |1520 |9995 |  10k| 159 | 17 |  29 |   0 | 3.463333e+02 | 5.110000e+02 |  47.55%| unknown
  2.8s|     1 |     0 |   898 |     - |    89M |   0 |1520 |9995 |  10k| 161 | 18 |  29 |   0 | 3.463333e+02 | 5.110000e+02 |  47.55%| unknown
  2.8s|     1 |     0 |   952 |     - |    90M |   0 |1520 |9995 |  10k| 166 | 19 |  29 |   0 | 3.487604e+02 | 5.110000e+02 |  46.52%| unknown
  2.9s|     1 |     0 |   953 |     - |    91M |   0 |1520 |9994 |  10k| 167 | 20 |  29 |   0 | 3.490208e+02 | 5.110000e+02 |  46.41%| unknown
  2.9s|     1 |     0 |   963 |     - |    92M |   0 |1520 |9994 |  10k| 170 | 21 |  29 |   0 | 3.492576e+02 | 5.110000e+02 |  46.31%| unknown
  2.9s|     1 |     0 |   969 |     - |    92M |   0 |1520 |9994 |  10k| 173 | 22 |  29 |   0 | 3.492576e+02 | 5.110000e+02 |  46.31%| unknown
  2.9s|     1 |     0 |   979 |     - |    92M |   0 |1520 |9994 |  10k| 179 | 24 |  29 |   0 | 3.496250e+02 | 5.110000e+02 |  46.16%| unknown
  3.0s|     1 |     0 |   985 |     - |    92M |   0 |1520 |9993 |  10k| 184 | 25 |  29 |   0 | 3.497857e+02 | 5.110000e+02 |  46.09%| unknown
  3.1s|     1 |     0 |   994 |     - |    92M |   0 |1520 |9992 |  10k| 186 | 26 |  29 |   0 | 3.497857e+02 | 5.110000e+02 |  46.09%| unknown
  3.1s|     1 |     0 |  1009 |     - |    92M |   0 |1520 |9992 |  10k| 189 | 27 |  29 |   0 | 3.497857e+02 | 5.110000e+02 |  46.09%| unknown
  4.6s|     1 |     2 |  2828 |     - |    94M |   0 |1520 |  10k|  10k| 189 | 29 |  58 |  23 | 3.507500e+02 | 5.110000e+02 |  45.69%| unknown
* 5.3s|     5 |     4 |  2923 | 478.8 |strongbr|   3 |1520 |  10k|  10k| 189 |  1 |  58 |  85 | 3.525000e+02 | 3.890000e+02 |  10.35%| unknown
 time | node  | left  |LP iter|LP it/n|mem/heur|mdpt |vars |cons |rows |cuts |sepa|confs|strbr|  dualbound   | primalbound  |  gap   | compl. 
* 6.0s|     7 |     4 |  2990 | 330.3 |strongbr|   4 |1520 |8687 |  10k| 189 |  2 |  82 | 158 | 3.525000e+02 | 3.860000e+02 |   9.50%|   8.60%
* 7.5s|    23 |     6 |  3254 | 102.1 |strongbr|   9 |1520 |8145 |  10k| 189 |  2 | 223 | 315 | 3.550000e+02 | 3.820000e+02 |   7.61%|  22.50%
* 7.7s|    25 |     6 |  3270 |  94.2 |strongbr|   9 |1520 |7057 |  10k| 189 |  2 | 251 | 328 | 3.550000e+02 | 3.800000e+02 |   7.04%|  24.86%
 13.7s|   100 |     9 |  4956 |  39.9 |   114M |  19 |1520 |7207 |  10k| 267 |  5 |1021 | 774 | 3.550000e+02 | 3.800000e+02 |   7.04%|  30.69%
*16.3s|   125 |    10 |  5512 |  36.3 |strongbr|  25 |1520 |7428 |  10k| 267 |  2 |1373 |1026 | 3.550000e+02 | 3.780000e+02 |   6.48%|  31.84%
 20.8s|   200 |    15 |  6792 |  29.1 |   117M |  25 |1520 |7038 |  10k| 318 |  1 |1917 |1336 | 3.610833e+02 | 3.780000e+02 |   4.68%|  52.95%
 27.7s|   300 |    17 |  8740 |  25.9 |   122M |  25 |1520 |7335 |  10k| 439 |  0 |2669 |1695 | 3.622500e+02 | 3.780000e+02 |   4.35%|  56.12%
 33.0s|   400 |    19 | 10604 |  24.1 |   123M |  25 |1520 |7850 |  10k| 474 |  5 |3565 |2038 | 3.622500e+02 | 3.780000e+02 |   4.35%|  56.28%
 36.3s|   500 |    27 | 12085 |  22.2 |   124M |  28 |1520 |7648 |  10k| 510 |  6 |3672 |2278 | 3.645000e+02 | 3.780000e+02 |   3.70%|  57.44%
 39.5s|   600 |    34 | 13778 |  21.3 |   124M |  32 |1520 |7681 |   0 | 532 |  0 |3914 |2483 | 3.655000e+02 | 3.780000e+02 |   3.42%|  59.18%
 43.0s|   700 |    34 | 15053 |  20.1 |   127M |  37 |1520 |7745 |  10k| 568 |  1 |4229 |2701 | 3.672500e+02 | 3.780000e+02 |   2.93%|  62.85%
 45.2s|   800 |    36 | 16083 |  18.9 |   129M |  37 |1520 |7782 |   0 | 612 |  0 |4398 |2807 | 3.680000e+02 | 3.780000e+02 |   2.72%|  69.59%
 47.6s|   900 |    38 | 17156 |  18.0 |   132M |  38 |1520 |7772 |  10k| 679 |  2 |4622 |2898 | 3.705000e+02 | 3.780000e+02 |   2.02%|  72.80%
 49.2s|  1000 |    28 | 17998 |  17.0 |   132M |  44 |1520 |7729 |  10k| 687 |  0 |4733 |2953 | 3.720000e+02 | 3.780000e+02 |   1.61%|  73.54%
 50.8s|  1100 |    23 | 18758 |  16.2 |   132M |  44 |1520 |7800 |  10k| 706 |  0 |5005 |3026 | 3.725000e+02 | 3.780000e+02 |   1.48%|  74.53%
Restart triggered after 50 consecutive estimations that the remaining tree will be large
 time | node  | left  |LP iter|LP it/n|mem/heur|mdpt |vars |cons |rows |cuts |sepa|confs|strbr|  dualbound   | primalbound  |  gap   | compl. 
 51.8s|  1200 |    20 | 19389 |  15.3 |   132M |  44 |1520 |7745 |   0 | 710 |  0 |5079 |3062 | 3.735000e+02 | 3.780000e+02 |   1.20%|  75.05%
 54.6s|  1300 |    12 | 20101 |  14.7 |   133M |  44 |1520 |7664 |  10k| 730 |  2 |5161 |3106 | 3.750000e+02 | 3.780000e+02 |   0.80%|  78.22%
 55.7s|  1400 |     8 | 20633 |  14.0 |   134M |  44 |1520 |7627 |  10k| 744 |  1 |5192 |3131 | 3.755000e+02 | 3.780000e+02 |   0.67%|  89.11%

SCIP Status        : problem is solved [optimal solution found]
Solving Time (sec) : 56.02
Solving Nodes      : 1432
Primal Bound       : +3.78000000000000e+02 (7 solutions)
Dual Bound         : +3.78000000000000e+02
Gap                : 0.00 %
SCIP Status        : problem is solved [optimal solution found]
Total Time         :      56.13
  solving          :      56.02
  presolving       :       1.02 (included in solving)
  reading          :       0.11
  copying          :       0.27 (13 #copies) (minimal 0.02, maximal 0.02, average 0.02)
Original Problem   :
  Problem name     : neos-1109824
  Variables        : 1520 (1520 binary, 0 integer, 0 implicit integer, 0 continuous)
  Constraints      : 28979 initial, 28979 maximal
  Objective        : minimize, 1512 non-zeros (abs.min = 3, abs.max = 83)
Presolved Problem  :
  Problem name     : t_neos-1109824
  Variables        : 1520 (1520 binary, 0 integer, 0 implicit integer, 0 continuous)
  Constraints      : 9979 initial, 10028 maximal
  Objective        : minimize, 1512 non-zeros (abs.min = 3, abs.max = 83)
  Nonzeros         : 33288 constraint, 49511 clique table
Presolvers         :   ExecTime  SetupTime  Calls  FixedVars   AggrVars   ChgTypes  ChgBounds   AddHoles    DelCons    AddCons   ChgSides   ChgCoefs
  boundshift       :       0.00       0.00      0          0          0          0          0          0          0          0          0          0
  convertinttobin  :       0.00       0.00      0          0          0          0          0          0          0          0          0          0
  domcol           :       0.01       0.00      1          0          0          0          0          0          0          0          0          0
  dualagg          :       0.00       0.00      0          0          0          0          0          0          0          0          0          0
  dualcomp         :       0.00       0.00      0          0          0          0          0          0          0          0          0          0
  dualinfer        :       0.00       0.00      0          0          0          0          0          0          0          0          0          0
  dualsparsify     :       0.01       0.00      1          0          0          0          0          0          0          0          0          0
  gateextraction   :       0.01       0.00      1          0          0          0          0          0          0          0          0          0
  implics          :       0.00       0.00      3          0          0          0          0          0          0          0          0          0
  inttobinary      :       0.00       0.00      0          0          0          0          0          0          0          0          0          0
  qpkktref         :       0.00       0.00      0          0          0          0          0          0          0          0          0          0
  redvub           :       0.00       0.00      0          0          0          0          0          0          0          0          0          0
  sparsify         :       0.04       0.00      1          0          0          0          0          0          0          0          0          0
  stuffing         :       0.00       0.00      0          0          0          0          0          0          0          0          0          0
  trivial          :       0.00       0.00      3          0          0          0          0          0          0          0          0          0
  tworowbnd        :       0.00       0.00      0          0          0          0          0          0          0          0          0          0
  dualfix          :       0.00       0.00      3          0          0          0          0          0          0          0          0          0
  genvbounds       :       0.00       0.00      0          0          0          0          0          0          0          0          0          0
  probing          :       0.86       0.00      1          0          0          0          0          0          0          0          0          0
  pseudoobj        :       0.00       0.00      0          0          0          0          0          0          0          0          0          0
  symmetry         :       0.00       0.00      0          0          0          0          0          0          0          0          0          0
  vbounds          :       0.00       0.00      1          0          0          0          0          0          0          0          0          0
  knapsack         :       0.00       0.00      0          0          0          0          0          0          0          0          0          0
  setppc           :       0.00       0.00      3          0          0          0          0          0          0          0          0          0
  linear           :       0.07       0.01      6          0          0          0          0          0      19000          0          0          0
  logicor          :       0.01       0.00      3          0          0          0          0          0          0          0          0          0
  benders          :       0.00       0.00      0          0          0          0          0          0          0          0          0          0
  components       :       0.00       0.00      1          0          0          0          0          0          0          0          0          0
  root node        :          -          -      -        822          -          -        822          -          -          -          -          -
Constraints        :     Number  MaxNumber  #Separate #Propagate    #EnfoLP    #EnfoRelax  #EnfoPS    #Check   #ResProp    Cutoffs    DomReds       Cuts    Applied      Conss   Children
  benderslp        :          0          0          0          0       1628          0          0        143          0          0          0          0          0          0          0
  integral         :          0          0          0          0       1628          0          0        143          0          3       2854          0          0       3994       1434
  knapsack         :          0+        14          0      16587          0          0          0          0       1005          7       1231          0          0          0          0
  setppc           :        783+       855         27      23276          0          0          0        138      78928         68      20890          0          0          0          0
  linear           :         76+        81         27      23208          0          0          0          7      41892        243      16932          0          0          0          0
  logicor          :       9120+      9159         27      12694          0          0          0          7       5476        224       2582          1          1          0          0
  benders          :          0          0          0          0          0          0          0          8          0          0          0          0          0          0          0
  countsols        :          0          0          0          0          0          0          0          8          0          0          0          0          0          0          0
  components       :          0          0          0          0          0          0          0          0          0          0          0          0          0          0          0
Constraint Timings :  TotalTime  SetupTime   Separate  Propagate     EnfoLP     EnfoPS     EnfoRelax   Check    ResProp    SB-Prop
  benderslp        :       0.00       0.00       0.00       0.00       0.00       0.00       0.00       0.00       0.00       0.00
  integral         :      26.37       0.00       0.00       0.00      26.37       0.00       0.00       0.00       0.00       0.00
  knapsack         :       0.05       0.00       0.00       0.02       0.00       0.00       0.00       0.00       0.01       0.02
  setppc           :       0.36       0.00       0.00       0.13       0.00       0.00       0.00       0.00       0.02       0.21
  linear           :       0.64       0.01       0.04       0.27       0.00       0.00       0.00       0.00       0.11       0.22
  logicor          :       0.90       0.00       0.05       0.54       0.00       0.00       0.00       0.00       0.03       0.28
  benders          :       0.00       0.00       0.00       0.00       0.00       0.00       0.00       0.00       0.00       0.00
  countsols        :       0.00       0.00       0.00       0.00       0.00       0.00       0.00       0.00       0.00       0.00
  components       :       0.00       0.00       0.00       0.00       0.00       0.00       0.00       0.00       0.00       0.00
Propagators        : #Propagate   #ResProp    Cutoffs    DomReds
  dualfix          :          1          0          0          0
  genvbounds       :          0          0          0          0
  nlobbt           :          0          0          0          0
  obbt             :          0          0          0          0
  probing          :          0          0          0          0
  pseudoobj        :       8599          0          1          0
  redcost          :       5067          0          0      42506
  rootredcost      :          6          0          0        501
  symmetry         :          0          0          0          0
  vbounds          :       7988          0          0          0
Propagator Timings :  TotalTime  SetupTime   Presolve  Propagate    ResProp    SB-Prop
  dualfix          :       0.00       0.00       0.00       0.00       0.00       0.00
  genvbounds       :       0.01       0.00       0.00       0.00       0.00       0.00
  nlobbt           :       0.00       0.00       0.00       0.00       0.00       0.00
  obbt             :       0.00       0.00       0.00       0.00       0.00       0.00
  probing          :       0.86       0.00       0.86       0.00       0.00       0.00
  pseudoobj        :       0.04       0.00       0.00       0.04       0.00       0.00
  redcost          :       0.36       0.00       0.00       0.36       0.00       0.00
  rootredcost      :       0.01       0.00       0.00       0.01       0.00       0.00
  symmetry         :       0.00       0.00       0.00       0.00       0.00       0.00
  vbounds          :       0.02       0.00       0.00       0.02       0.00       0.00
Conflict Analysis  :       Time      Calls    Success    DomReds  Conflicts   Literals    Reconvs ReconvLits   Dualrays   Nonzeros   LP Iters   (pool size: [10000,10000])
  propagation      :       0.09        439        432          -       1795      162.3         63       36.2          -          -          -
  infeasible LP    :       0.04         38         37          -        146       98.8          8       32.0         29       98.0          0
  bound exceed. LP :       6.33       1501       1329          -       5567      121.2         46       48.1        242        1.0      12746
  strong branching :       0.00          0          0          -          0        0.0          0        0.0          -          -          0
  pseudo solution  :       0.00          0          0          -          0        0.0          0        0.0          -          -          -
  applied globally :       0.80          -          -        242       5137       61.0          -          -        271          -          -
  applied locally  :          -          -          -          0         49      289.4          -          -          0          -          -
Separators         :   ExecTime  SetupTime      Calls  RootCalls    Cutoffs    DomReds  FoundCuts ViaPoolAdd  DirectAdd    Applied ViaPoolApp  DirectApp      Conss
  cut pool         :       0.24          -        564         53          -          -       2757       1683          -          -          -          -          -    (maximal pool size:       1000)
  aggregation      :       0.37       0.00        219         27          0          0          0          0          0          0          0          0          0
  > cmir           :          -          -          -          -          -          -          -          0          0          0          0          0          -
  > flowcover      :          -          -          -          -          -          -          -          0          0          0          0          0          -
  > knapsackcover  :          -          -          -          -          -          -          -          0          0          0          0          0          -
  cgmip            :       0.00       0.00          0          0          0          0          0          0          0          0          0          0          0
  clique           :       0.07       0.00         27         27          0          0         76        132          0         99         99          0          0
  closecuts        :       0.00       0.00          0          0          0          0          0          0          0          0          0          0          0
  convexproj       :       0.00       0.00          0          0          0          0          0          0          0          0          0          0          0
  disjunctive      :       0.00       0.00          0          0          0          0          0          0          0          0          0          0          0
  eccuts           :       0.00       0.00          0          0          0          0          0          0          0          0          0          0          0
  gauge            :       0.00       0.00          0          0          0          0          0          0          0          0          0          0          0
  gomory           :       6.25       0.00        153         10          0          0       2587       1022        256        305        299          6          0
  > gomorymi       :          -          -          -          -          -          -          -        181        128         24         20          4          -
  > strongcg       :          -          -          -          -          -          -          -        841        128        281        279          2          -
  impliedbounds    :       0.37       0.00        219         27          0          0          0          0          0          0          0          0          0
  interminor       :       0.00       0.00          0          0          0          0          0          0          0          0          0          0          0
  intobj           :       0.00       0.00          0          0          0          0          0          0          0          0          0          0          0
  mcf              :       0.00       0.00          1          1          0          0          0          0          0          0          0          0          0
  minor            :       0.00       0.00          0          0          0          0          0          0          0          0          0          0          0
  mixing           :       0.00       0.00          0          0          0          0          0          0          0          0          0          0          0
  oddcycle         :       0.00       0.00          0          0          0          0          0          0          0          0          0          0          0
  rapidlearning    :       0.03       0.00          0          0          0          0          0          0          0          0          0          0          0
  rlt              :       0.00       0.00         10         10          0          0          0          0          0          0          0          0          0
  zerohalf         :       0.24       0.00        163         20          0          0        378        529         28        339        321         18          0
Cutselectors       :   ExecTime  SetupTime      Calls  RootCalls   Selected     Forced   Filtered  RootSelec   RootForc   RootFilt 
  hybrid           :       0.00       0.00        215         26        744          0       1224        189          0        108
Pricers            :   ExecTime  SetupTime      Calls       Vars
  problem variables:       0.00          -          0          0
Branching Rules    :   ExecTime  SetupTime   BranchLP  BranchExt   BranchPS    Cutoffs    DomReds       Cuts      Conss   Children
  allfullstrong    :       0.00       0.00          0          0          0          0          0          0          0          0
  cloud            :       0.00       0.00          0          0          0          0          0          0          0          0
  distribution     :       0.00       0.00          0          0          0          0          0          0          0          0
  fullstrong       :       0.00       0.00          0          0          0          0          0          0          0          0
  inference        :       0.00       0.00          0          0          0          0          0          0          0          0
  leastinf         :       0.00       0.00          0          0          0          0          0          0          0          0
  lookahead        :       0.00       0.00          0          0          0          0          0          0          0          0
  mostinf          :       0.00       0.00          0          0          0          0          0          0          0          0
  multaggr         :       0.00       0.00          0          0          0          0          0          0          0          0
  nodereopt        :       0.00       0.00          0          0          0          0          0          0          0          0
  pscost           :       0.00       0.00          0          0          0          0          0          0          0          0
  random           :       0.00       0.00          0          0          0          0          0          0          0          0
  relpscost        :      26.37       0.00       1628          0          0          3       2854          0       4391       1434
  vanillafullstrong:       0.00       0.00          0          0          0          0          0          0          0          0
Primal Heuristics  :   ExecTime  SetupTime      Calls      Found       Best
  LP solutions     :       0.00          -          -          0          0
  relax solutions  :       0.00          -          -          0          0
  pseudo solutions :       0.00          -          -          0          0
  strong branching :       0.04          -          -          5          5
  actconsdiving    :       0.00       0.00          0          0          0
  adaptivediving   :       0.00       0.00          0          0          0
  alns             :       0.23       0.00          4          0          0
  bound            :       0.00       0.00          0          0          0
  clique           :       0.04       0.00          1          0          0
  coefdiving       :       0.00       0.00          0          0          0
  completesol      :       0.00       0.00          0          0          0
  conflictdiving   :       0.09       0.00          1          0          0
  crossover        :       0.09       0.00          2          0          0
  dins             :       0.00       0.00          0          0          0
  distributiondivin:       0.05       0.00          0          0          0
  dps              :       0.00       0.00          0          0          0
  dualval          :       0.00       0.00          0          0          0
  farkasdiving     :       1.02       0.00          1          0          0
  feaspump         :       0.11       0.00          1          1          1
  fixandinfer      :       0.00       0.00          0          0          0
  fracdiving       :       0.00       0.00          0          0          0
  gins             :       0.01       0.00          0          0          0
  guideddiving     :       0.00       0.00          0          0          0
  indicator        :       0.00       0.00          0          0          0
  intdiving        :       0.00       0.00          0          0          0
  intshifting      :       0.00       0.00          0          0          0
  linesearchdiving :       0.00       0.00          0          0          0
  localbranching   :       0.00       0.00          0          0          0
  locks            :       0.02       0.00          1          0          0
  lpface           :       1.27       0.00          1          0          0
  mpec             :       0.00       0.00          0          0          0
  multistart       :       0.00       0.00          0          0          0
  mutation         :       0.00       0.00          0          0          0
  nlpdiving        :       0.00       0.00          0          0          0
  objpscostdiving  :       0.00       0.00          0          0          0
  octane           :       0.00       0.00          0          0          0
  ofins            :       0.00       0.00          0          0          0
  oneopt           :       0.01       0.00          6          0          0
  padm             :       0.00       0.00          0          0          0
  proximity        :       0.00       0.00          0          0          0
  pscostdiving     :       0.00       0.00          0          0          0
  randrounding     :       0.11       0.00        148          0          0
  rens             :       0.04       0.00          1          0          0
  reoptsols        :       0.00       0.00          0          0          0
  repair           :       0.00       0.00          0          0          0
  rins             :       0.27       0.00          6          0          0
  rootsoldiving    :       0.00       0.00          0          0          0
  rounding         :       0.22       0.00        548          0          0
  shiftandpropagate:       0.01       0.00          1          0          0
  shifting         :       0.22       0.00        297          1          0
  simplerounding   :       0.00       0.00          0          0          0
  subnlp           :       0.00       0.00          0          0          0
  trivial          :       0.00       0.00          2          0          0
  trivialnegation  :       0.00       0.00          0          0          0
  trustregion      :       0.00       0.00          0          0          0
  trysol           :       0.00       0.00          0          0          0
  twoopt           :       0.00       0.00          0          0          0
  undercover       :       0.00       0.00          0          0          0
  vbounds          :       0.03       0.00          1          0          0
  veclendiving     :       0.00       0.00          0          0          0
  zeroobj          :       0.00       0.00          0          0          0
  zirounding       :       0.03       0.00        716          0          0
  other solutions  :          -          -          -          0          -
LP                 :       Time      Calls Iterations  Iter/call   Iter/sec  Time-0-It Calls-0-It    ItLimit
  primal LP        :       0.85        129          0       0.00       0.00       0.85        129
  dual LP          :      10.29       3889      18506       7.27    1798.47       0.93       1342
  lex dual LP      :       0.00          0          0       0.00          -
  barrier LP       :       0.00          0          0       0.00          -       0.00          0
  resolve instable :       0.00          0          0       0.00          -
  diving/probing LP:       2.71        320       2311       7.22     851.22
  strong branching :      13.16       3147      37258      11.84    2832.12          -          -        474
    (at root node) :          -         23        950      41.30          -
  conflict analysis:       4.03       1401      12746       9.10    3162.05
B&B Tree           :
  number of runs   :          1
  nodes            :       1432 (717 internal, 715 leaves)
  feasible leaves  :          0
  infeas. leaves   :        132
  objective leaves :        583
  nodes (total)    :       1432 (717 internal, 715 leaves)
  nodes left       :          0
  max depth        :         44
  max depth (total):         44
  backtracks       :        184 (12.8%)
  early backtracks :          0 (0.0%)
  nodes exc. ref.  :          0 (0.0%)
  delayed cutoffs  :          3
  repropagations   :        647 (729 domain reductions, 3 cutoffs)
  avg switch length:       4.28
  switching time   :       1.32
Root Node          :
  First LP value   : +2.78000000000000e+02
  First LP Iters   :         37 (1531.71 Iter/sec)
  First LP Time    :       0.02
  Final Dual Bound : +3.50750000000000e+02
  Final Root Iters :       1008
  Root LP Estimate : +3.67670253730065e+02
Solution           :
  Solutions found  :          7 (6 improvements)
  First Solution   : +5.11000000000000e+02   (in run 1, after 1 nodes, 1.33 seconds, depth 0, found by <feaspump>)
  Gap First Sol.   :      83.81 %
  Gap Last Sol.    :       6.48 %
  Primal Bound     : +3.78000000000000e+02   (in run 1, after 125 nodes, 16.34 seconds, depth 8, found by <relaxation>)
  Dual Bound       : +3.78000000000000e+02
  Gap              :       0.00 %
Integrals          :      Total       Avg%
  primal-dual      :     475.69       8.49
  primal-ref       :          -          - (not evaluated)
  dual-ref         :          -          - (not evaluated)
written solution information to file <results/final_miplib_symretope_if_extended_generating_set_cpx_v802__settings_final_nosym_norestarts__4__neos-1109824.mps.gz.sol>
@04 1686663894
